width,height
10,25
2,17
1,16
4,7
5,23
2,17
2,12
5,23
1,2
2,20
1,10
1,8
5,7
1,3
1,21
5,24
3,13
1,2
5,19
4,10
4,3
4,16
4,23
4,24
2,16
4,6
3,21
3,17
3,23
3,5
4,21
1,4
5,8
2,11
3,8
5,7
5,13
1,6
2,5
1,22
3,23
2,17
4,22
2,22
2,21
4,10
1,23
1,16
5,5
1,24
5,16
1,14
4,24
1,22
3,1
2,3
1,2
4,6
2,6
1,22
3,20
4,10
4,16
5,10
5,5
3,20
5,21
3,1
4,17
3,15
2,5
1,6
4,12
1,17
2,3
2,17
2,15
2,22
4,15
3,25
2,16
2,15
2,4
4,17
3,14
4,25
5,22
1,20
3,6
3,20
2,12
2,6
1,10
3,20
2,10
2,12
4,25
2,16
1,14
4,7
3,4
